NAME: tsp20_17
COMMENT: 20-tsp problem (Padberg/Rinaldi)
TYPE: TSP
DIMENSION: 20
EDGE_WEIGHT_TYPE : EUC_2D
NODE_COORD_SECTION
1 25 8
2 11 36
3 11 27
4 3 38
5 30 3
6 3 15
7 9 18
8 10 14
9 35 12
10 35 30
11 32 3
12 26 9
13 14 9
14 30 16
15 28 30
16 33 8
17 22 12
18 5 31
19 8 19
20 10 25
